284359564
1754867758
3237942174
2856161862
1993625976
3536357419
1531589625
530630132
1981898663
344074840
787124942
3582061651
2716454568
2894076907
3076503505
982650401
3602343965
2664327045
615475125
1595435743
2196390269
2224716913
279841545
201480708
1131932402
